param N := 3;
param M := 3;

param available :=
1 240000
2 8000
3 75000
;

param: requirements: 1 2 3 :=
1 48 1 10
2 40 1 10
3 0 1 2
;

param prices :=
1 40
2 38
3 9
;

param costs :=
1 30
2 26
3 7
;

param demands :=
1 10000
2 2000
3 10000
;
